(set-info :smt-lib-version 2.6)
(set-logic QF_LRA)
(set-info :source | Clock Synchronization. Bruno Dutertre (bruno@csl.sri.com) |)
(set-info :category "industrial")
(set-info :status unsat)
(declare-fun x_0 () Real)
(declare-fun x_1 () Real)
(declare-fun x_2 () Real)
(declare-fun x_3 () Real)
(declare-fun x_4 () Real)
(declare-fun x_5 () Real)
(declare-fun x_6 () Real)
(declare-fun x_7 () Real)
(declare-fun x_8 () Real)
(declare-fun x_9 () Real)
(declare-fun x_10 () Real)
(declare-fun x_11 () Real)
(declare-fun x_12 () Real)
(declare-fun x_13 () Real)
(declare-fun x_14 () Real)
(declare-fun x_15 () Real)
(declare-fun x_16 () Real)
(declare-fun x_17 () Real)
(declare-fun x_18 () Real)
(declare-fun x_19 () Real)
(declare-fun x_20 () Real)
(declare-fun x_21 () Real)
(declare-fun x_22 () Real)
(declare-fun x_23 () Real)
(declare-fun x_24 () Real)
(declare-fun x_25 () Real)
(declare-fun x_26 () Real)
(declare-fun x_27 () Real)
(declare-fun x_28 () Real)
(declare-fun x_29 () Real)
(declare-fun x_30 () Real)
(declare-fun x_31 () Real)
(declare-fun x_32 () Real)
(declare-fun x_33 () Real)
(declare-fun x_34 () Real)
(declare-fun x_35 () Real)
(declare-fun x_36 () Real)
(declare-fun x_37 () Real)
(declare-fun x_38 () Real)
(declare-fun x_39 () Real)
(declare-fun x_40 () Real)
(declare-fun x_41 () Real)
(declare-fun x_42 () Real)
(declare-fun x_43 () Real)
(declare-fun x_44 () Real)
(declare-fun x_45 () Real)
(declare-fun x_46 () Real)
(declare-fun x_47 () Real)
(declare-fun x_48 () Real)
(declare-fun x_49 () Real)
(declare-fun x_50 () Real)
(declare-fun x_51 () Real)
(declare-fun x_52 () Real)
(declare-fun x_53 () Real)
(declare-fun x_54 () Real)
(declare-fun x_55 () Real)
(declare-fun x_56 () Real)
(declare-fun x_57 () Real)
(declare-fun x_58 () Real)
(declare-fun x_59 () Real)
(declare-fun x_60 () Real)
(declare-fun x_61 () Real)
(declare-fun x_62 () Real)
(declare-fun x_63 () Real)
(declare-fun x_64 () Real)
(declare-fun x_65 () Real)
(declare-fun x_66 () Real)
(declare-fun x_67 () Real)
(declare-fun x_68 () Real)
(declare-fun x_69 () Real)
(declare-fun x_70 () Real)
(declare-fun x_71 () Real)
(declare-fun x_72 () Real)
(declare-fun x_73 () Real)
(declare-fun x_74 () Real)
(declare-fun x_75 () Real)
(declare-fun x_76 () Real)
(declare-fun x_77 () Real)
(declare-fun x_78 () Real)
(declare-fun x_79 () Real)
(declare-fun x_80 () Real)
(declare-fun x_81 () Real)
(declare-fun x_82 () Real)
(declare-fun x_83 () Real)
(declare-fun x_84 () Real)
(declare-fun x_85 () Real)
(declare-fun x_86 () Real)
(declare-fun x_87 () Real)
(declare-fun x_88 () Real)
(declare-fun x_89 () Real)
(declare-fun x_90 () Real)
(declare-fun x_91 () Real)
(declare-fun x_92 () Real)
(declare-fun x_93 () Real)
(declare-fun x_94 () Real)
(declare-fun x_95 () Real)
(declare-fun x_96 () Real)
(declare-fun x_97 () Real)
(declare-fun x_98 () Real)
(declare-fun x_99 () Real)
(declare-fun x_100 () Real)
(declare-fun x_101 () Real)
(declare-fun x_102 () Real)
(declare-fun x_103 () Real)
(declare-fun x_104 () Real)
(declare-fun x_105 () Real)
(declare-fun x_106 () Real)
(declare-fun x_107 () Real)
(declare-fun x_108 () Real)
(declare-fun x_109 () Real)
(declare-fun x_110 () Real)
(declare-fun x_111 () Real)
(declare-fun x_112 () Real)
(declare-fun x_113 () Real)
(declare-fun x_114 () Real)
(declare-fun x_115 () Real)
(declare-fun x_116 () Real)
(declare-fun x_117 () Real)
(declare-fun x_118 () Real)
(declare-fun x_119 () Real)
(declare-fun x_120 () Real)
(declare-fun x_121 () Real)
(declare-fun x_122 () Real)
(declare-fun x_123 () Real)
(declare-fun x_124 () Real)
(declare-fun x_125 () Real)
(declare-fun x_126 () Real)
(declare-fun x_127 () Real)
(declare-fun x_128 () Real)
(declare-fun x_129 () Real)
(declare-fun x_130 () Real)
(declare-fun x_131 () Real)
(declare-fun x_132 () Real)
(declare-fun x_133 () Real)
(declare-fun x_134 () Real)
(declare-fun x_135 () Real)
(declare-fun x_136 () Real)
(declare-fun x_137 () Real)
(declare-fun x_138 () Real)
(declare-fun x_139 () Real)
(declare-fun x_140 () Real)
(declare-fun x_141 () Real)
(declare-fun x_142 () Real)
(declare-fun x_143 () Real)
(declare-fun x_144 () Real)
(declare-fun x_145 () Real)
(declare-fun x_146 () Real)
(declare-fun x_147 () Real)
(declare-fun x_148 () Real)
(declare-fun x_149 () Real)
(declare-fun x_150 () Real)
(declare-fun x_151 () Real)
(declare-fun x_152 () Real)
(declare-fun x_153 () Real)
(declare-fun x_154 () Real)
(declare-fun x_155 () Real)
(declare-fun x_156 () Real)
(declare-fun x_157 () Real)
(declare-fun x_158 () Real)
(declare-fun x_159 () Real)
(declare-fun x_160 () Real)
(declare-fun x_161 () Real)
(declare-fun x_162 () Real)
(assert (let ((?v_173 (= x_148 x_38)) (?v_172 (= x_131 x_53)) (?v_171 (= x_136 x_48)) (?v_143 (= x_132 x_44)) (?v_142 (= x_127 x_49)) (?v_144 (= x_149 x_34)) (?v_150 (= x_133 x_45)) (?v_151 (= x_128 x_50)) (?v_152 (= x_150 x_35)) (?v_157 (= x_134 x_46)) (?v_158 (= x_129 x_51)) (?v_159 (= x_151 x_36)) (?v_164 (= x_135 x_47)) (?v_165 (= x_130 x_52)) (?v_166 (= x_152 x_37)) (?v_255 (<= x_137 x_0)) (?v_256 (<= x_138 x_0)) (?v_257 (<= x_139 x_0)) (?v_258 (<= x_140 x_0)) (?v_259 (<= x_141 x_0)) (?v_130 (+ x_16 1))) (let ((?v_180 (= x_93 ?v_130)) (?v_175 (= x_16 x_15)) (?v_178 (= x_16 x_81)) (?v_131 (+ x_18 1))) (let ((?v_189 (= x_94 ?v_131)) (?v_184 (= x_18 x_17)) (?v_187 (= x_18 x_82)) (?v_132 (+ x_20 1))) (let ((?v_196 (= x_95 ?v_132)) (?v_191 (= x_20 x_19)) (?v_194 (= x_20 x_83)) (?v_167 (= x_90 x_31)) (?v_170 (= x_91 x_22)) (?v_133 (+ x_22 1))) (let ((?v_203 (= x_91 ?v_133)) (?v_168 (= x_157 x_43)) (?v_169 (= x_141 x_21)) (?v_198 (= x_22 x_21)) (?v_201 (= x_22 x_84)) (?v_182 (= x_86 x_23)) (?v_140 (= x_153 x_39)) (?v_137 (= x_137 x_12)) (?v_183 (= x_92 x_13)) (?v_146 (= x_87 x_25)) (?v_147 (= x_154 x_40)) (?v_148 (= x_138 x_15)) (?v_149 (= x_93 x_16)) (?v_153 (= x_88 x_27)) (?v_154 (= x_155 x_41)) (?v_155 (= x_139 x_17)) (?v_156 (= x_94 x_18)) (?v_160 (= x_89 x_29)) (?v_161 (= x_156 x_42)) (?v_162 (= x_140 x_19)) (?v_163 (= x_95 x_20)) (?v_129 (+ x_13 1))) (let ((?v_141 (= x_92 ?v_129)) (?v_134 (= x_13 x_12)) (?v_138 (= x_13 x_80)) (?v_3 (= x_12 x_0)) (?v_2 (+ (+ x_0 x_4) x_1))) (let ((?v_34 (= x_12 ?v_2)) (?v_4 (= x_15 x_0)) (?v_38 (= x_15 ?v_2)) (?v_5 (= x_17 x_0)) (?v_42 (= x_17 ?v_2)) (?v_6 (= x_19 x_0)) (?v_46 (= x_19 ?v_2)) (?v_7 (= x_21 x_0)) (?v_50 (= x_21 ?v_2)) (?v_18 (not ?v_3))) (let ((?v_21 (not ?v_4)) (?v_24 (not ?v_5)) (?v_27 (not ?v_6)) (?v_30 (not ?v_7)) (?v_33 (<= x_13 x_0)) (?v_37 (<= x_16 x_0)) (?v_41 (<= x_18 x_0)) (?v_45 (<= x_20 x_0)) (?v_49 (<= x_22 x_0)) (?v_68 (not ?v_34))) (let ((?v_53 (and ?v_33 ?v_68)) (?v_69 (not ?v_38))) (let ((?v_56 (and ?v_37 ?v_69)) (?v_70 (not ?v_42))) (let ((?v_59 (and ?v_41 ?v_70)) (?v_71 (not ?v_46))) (let ((?v_62 (and ?v_45 ?v_71)) (?v_72 (not ?v_50))) (let ((?v_65 (and ?v_49 ?v_72)) (?v_269 (= x_137 x_147))) (let ((?v_264 (not ?v_269)) (?v_263 (+ (+ x_147 x_4) x_1))) (let ((?v_295 (= x_137 ?v_263)) (?v_272 (= x_138 x_147))) (let ((?v_265 (not ?v_272)) (?v_299 (= x_138 ?v_263)) (?v_275 (= x_139 x_147))) (let ((?v_266 (not ?v_275)) (?v_303 (= x_139 ?v_263)) (?v_278 (= x_140 x_147))) (let ((?v_267 (not ?v_278)) (?v_307 (= x_140 ?v_263)) (?v_281 (= x_141 x_147))) (let ((?v_268 (not ?v_281)) (?v_311 (= x_141 ?v_263)) (?v_294 (not (<= x_92 x_147))) (?v_298 (not (<= x_93 x_147))) (?v_302 (not (<= x_94 x_147))) (?v_306 (not (<= x_95 x_147))) (?v_310 (not (<= x_91 x_147)))) (let ((?v_314 (or ?v_294 ?v_295)) (?v_317 (or ?v_298 ?v_299)) (?v_320 (or ?v_302 ?v_303)) (?v_323 (or ?v_306 ?v_307)) (?v_326 (or ?v_310 ?v_311)) (?v_81 (- x_92 x_2))) (let ((?v_205 (<= ?v_81 x_96)) (?v_206 (<= ?v_81 x_97)) (?v_207 (<= ?v_81 x_98)) (?v_208 (<= ?v_81 x_99)) (?v_209 (<= ?v_81 x_100)) (?v_82 (- x_93 x_2))) (let ((?v_210 (<= ?v_82 x_101)) (?v_211 (<= ?v_82 x_102)) (?v_212 (<= ?v_82 x_103)) (?v_213 (<= ?v_82 x_104)) (?v_214 (<= ?v_82 x_105)) (?v_83 (- x_94 x_2))) (let ((?v_215 (<= ?v_83 x_106)) (?v_216 (<= ?v_83 x_107)) (?v_217 (<= ?v_83 x_108)) (?v_218 (<= ?v_83 x_109)) (?v_219 (<= ?v_83 x_110)) (?v_84 (- x_95 x_2))) (let ((?v_220 (<= ?v_84 x_111)) (?v_221 (<= ?v_84 x_112)) (?v_222 (<= ?v_84 x_113)) (?v_223 (<= ?v_84 x_114)) (?v_224 (<= ?v_84 x_115)) (?v_85 (- x_91 x_2))) (let ((?v_225 (<= ?v_85 x_116)) (?v_226 (<= ?v_85 x_117)) (?v_227 (<= ?v_85 x_118)) (?v_228 (<= ?v_85 x_119)) (?v_229 (<= ?v_85 x_120)) (?v_86 (+ x_92 x_2))) (let ((?v_230 (<= x_96 ?v_86)) (?v_231 (<= x_97 ?v_86)) (?v_232 (<= x_98 ?v_86)) (?v_233 (<= x_99 ?v_86)) (?v_234 (<= x_100 ?v_86)) (?v_87 (+ x_93 x_2))) (let ((?v_235 (<= x_101 ?v_87)) (?v_236 (<= x_102 ?v_87)) (?v_237 (<= x_103 ?v_87)) (?v_238 (<= x_104 ?v_87)) (?v_239 (<= x_105 ?v_87)) (?v_88 (+ x_94 x_2))) (let ((?v_240 (<= x_106 ?v_88)) (?v_241 (<= x_107 ?v_88)) (?v_242 (<= x_108 ?v_88)) (?v_243 (<= x_109 ?v_88)) (?v_244 (<= x_110 ?v_88)) (?v_89 (+ x_95 x_2))) (let ((?v_245 (<= x_111 ?v_89)) (?v_246 (<= x_112 ?v_89)) (?v_247 (<= x_113 ?v_89)) (?v_248 (<= x_114 ?v_89)) (?v_249 (<= x_115 ?v_89)) (?v_90 (+ x_91 x_2))) (let ((?v_250 (<= x_116 ?v_90)) (?v_251 (<= x_117 ?v_90)) (?v_252 (<= x_118 ?v_90)) (?v_253 (<= x_119 ?v_90)) (?v_254 (<= x_120 ?v_90)) (?v_145 (and (not ?v_134) (not ?v_138))) (?v_181 (and (not ?v_175) (not ?v_178))) (?v_190 (and (not ?v_184) (not ?v_187))) (?v_197 (and (not ?v_191) (not ?v_194))) (?v_204 (and (not ?v_198) (not ?v_201))) (?v_0 (- x_0 x_5)) (?v_1 (- x_0 x_11)) (?v_8 (- x_23 x_24)) (?v_9 (- x_13 x_6)) (?v_10 (- x_25 x_26)) (?v_11 (- x_16 x_7)) (?v_12 (- x_27 x_28)) (?v_13 (- x_18 x_8)) (?v_14 (- x_29 x_30)) (?v_15 (- x_20 x_9)) (?v_16 (- x_31 x_32)) (?v_17 (- x_22 x_10)) (?v_19 (- x_23 x_34)) (?v_20 (- x_13 x_0)) (?v_22 (- x_25 x_35)) (?v_23 (- x_16 x_0)) (?v_25 (- x_27 x_36)) (?v_26 (- x_18 x_0)) (?v_28 (- x_29 x_37)) (?v_29 (- x_20 x_0)) (?v_31 (- x_31 x_38)) (?v_32 (- x_22 x_0)) (?v_54 (- x_34 x_24))) (let ((?v_35 (* ?v_54 1000)) (?v_36 (* (- x_34 x_32) 1000)) (?v_39 (* (- x_35 x_24) 1000)) (?v_40 (* (- x_35 x_32) 1000)) (?v_43 (* (- x_36 x_24) 1000)) (?v_44 (* (- x_36 x_32) 1000)) (?v_47 (* (- x_37 x_24) 1000)) (?v_48 (* (- x_37 x_32) 1000)) (?v_51 (* (- x_38 x_24) 1000)) (?v_66 (- x_38 x_32))) (let ((?v_52 (* ?v_66 1000)) (?v_55 (- x_0 x_6)) (?v_57 (- x_35 x_26)) (?v_58 (- x_0 x_7)) (?v_60 (- x_36 x_28)) (?v_61 (- x_0 x_8)) (?v_63 (- x_37 x_30)) (?v_64 (- x_0 x_9)) (?v_67 (- x_0 x_10)) (?v_139 (+ x_39 x_1)) (?v_179 (+ x_40 x_1)) (?v_188 (+ x_41 x_1)) (?v_195 (+ x_42 x_1)) (?v_202 (+ x_43 x_1)) (?v_73 (- x_49 x_34)) (?v_75 (- x_50 x_35)) (?v_77 (- x_51 x_36)) (?v_78 (- x_52 x_37)) (?v_79 (- x_53 x_38)) (?v_92 (- x_86 x_127)) (?v_93 (- x_92 x_132)) (?v_94 (- x_87 x_128)) (?v_95 (- x_93 x_133)) (?v_96 (- x_88 x_129)) (?v_97 (- x_94 x_134)) (?v_98 (- x_89 x_130)) (?v_99 (- x_95 x_135)) (?v_100 (- x_90 x_131)) (?v_101 (- x_91 x_136)) (?v_102 (+ x_92 1)) (?v_103 (+ x_93 1)) (?v_104 (+ x_94 1)) (?v_105 (+ x_95 1)) (?v_106 (+ x_91 1)) (?v_108 (- x_13 x_2)) (?v_109 (- x_16 x_2)) (?v_110 (- x_18 x_2)) (?v_111 (- x_20 x_2)) (?v_112 (- x_22 x_2)) (?v_113 (+ x_13 x_2)) (?v_114 (+ x_16 x_2)) (?v_115 (+ x_18 x_2)) (?v_116 (+ x_20 x_2)) (?v_117 (+ x_22 x_2)) (?v_119 (- x_23 x_49)) (?v_120 (- x_13 x_44)) (?v_121 (- x_25 x_50)) (?v_122 (- x_16 x_45)) (?v_123 (- x_27 x_51)) (?v_124 (- x_18 x_46)) (?v_125 (- x_29 x_52)) (?v_126 (- x_20 x_47)) (?v_127 (- x_31 x_53)) (?v_128 (- x_22 x_48)) (?v_135 (* x_153 2)) (?v_136 (+ x_54 x_74)) (?v_176 (* x_154 2)) (?v_177 (+ x_55 x_75)) (?v_185 (* x_155 2)) (?v_186 (+ x_56 x_76)) (?v_192 (* x_156 2)) (?v_193 (+ x_57 x_77)) (?v_199 (* x_157 2)) (?v_200 (+ x_58 x_78)) (?v_260 (- x_147 x_5)) (?v_261 (- x_147 x_11)) (?v_262 (+ x_147 x_1)) (?v_270 (- x_86 x_122)) (?v_271 (- x_92 x_158)) (?v_273 (- x_87 x_123)) (?v_274 (- x_93 x_159)) (?v_276 (- x_88 x_124)) (?v_277 (- x_94 x_160)) (?v_279 (- x_89 x_125)) (?v_280 (- x_95 x_161)) (?v_282 (- x_90 x_126)) (?v_283 (- x_91 x_162)) (?v_284 (- x_86 x_149)) (?v_285 (- x_92 x_147)) (?v_286 (- x_87 x_150)) (?v_287 (- x_93 x_147)) (?v_288 (- x_88 x_151)) (?v_289 (- x_94 x_147)) (?v_290 (- x_89 x_152)) (?v_291 (- x_95 x_147)) (?v_292 (- x_90 x_148)) (?v_293 (- x_91 x_147)) (?v_315 (- x_149 x_122))) (let ((?v_296 (* ?v_315 1000)) (?v_297 (* (- x_149 x_126) 1000)) (?v_300 (* (- x_150 x_122) 1000)) (?v_301 (* (- x_150 x_126) 1000)) (?v_304 (* (- x_151 x_122) 1000)) (?v_305 (* (- x_151 x_126) 1000)) (?v_308 (* (- x_152 x_122) 1000)) (?v_309 (* (- x_152 x_126) 1000)) (?v_312 (* (- x_148 x_122) 1000)) (?v_327 (- x_148 x_126))) (let ((?v_313 (* ?v_327 1000)) (?v_316 (- x_147 x_158)) (?v_318 (- x_150 x_123)) (?v_319 (- x_147 x_159)) (?v_321 (- x_151 x_124)) (?v_322 (- x_147 x_160)) (?v_324 (- x_152 x_125)) (?v_325 (- x_147 x_161)) (?v_328 (- x_147 x_162)) (?v_329 (- x_127 x_149)) (?v_330 (- x_128 x_150)) (?v_331 (- x_129 x_151)) (?v_332 (- x_130 x_152)) (?v_333 (- x_131 x_148)) (?v_74 (* (* x_1 999) (/ 1 1000))) (?v_76 (* (* x_1 1001) (/ 1 1000))) (?v_80 (+ x_85 (/ 1001 1000))) (?v_91 (+ x_121 (/ 1001 1000))) (?v_107 (+ x_33 (/ 1001 1000))) (?v_118 (+ x_79 (/ 1001 1000))) (?v_174 (+ x_33 (/ 999 1000)))) (and (and (and (and (and (and (and (and (and (and (and (and (and (and (and (and (and (and (and (and (and (and (and (and (and (and (and (and (and (and (and (and (and (and (and (and (and (and (and (and (and (and (and (and (and (and (and (and (and (and (and (and (and (and (and (and (and (and (and (and (and (and (and (and (and (and (and (and (and (and (and (and (and (and (and (and (and (and (and (and (and (and (and (and (and (and (and (and (and (and (and (and (and (and (and (and (and (and (and (and (and (and (and (and (and (and (and (and (and (and (and (and (and (and (and (and (and (and (and (and (and (and (and (and (and (and (and (and (and (and (and (and (and (and (and (and (and (and (and (and (and (and (and (and (and (and (and (and (and (and (and (and (and (and (and (and (and (and (and (and (and (and (and (and (and (and (and (and (and (and (and (and (and (and (and (and (and (and (and (and (and (and (and (and (and (and (and (and (and (and (and (and (and (and (and (and (and (and (and (and (and (and (and (and (and (and (and (and (and (and (and (and (and (and (and (and (and (and (and (and (and (and (and (and (and (and (and (and (and (and (and (and (and (and (and (and (and (and (and (and (and (and (and (and (and (and (and (and (and (and (and (and (and (and (and (and (and (and (and (and (and (and (and (and (and (and (and (and (and (and (and (and (and (and (and (and (and (and (and (and (and (and (and (and (not (<= x_1 0)) (not (<= x_2 0))) (not (< x_3 (+ x_2 (* (* (+ (* (* x_1 1) (/ 1 2)) 1) 1001) (/ 1 999)))))) (not (<= x_4 0))) (< x_5 (- (* (* (- (- x_1 x_3) 1) 999) (/ 1 2)) 1))) (not (< x_5 (* (* (+ (+ (+ x_4 x_2) x_3) (/ 1501 1000)) 1001) (/ 1 999))))) (not (<= x_11 0))) (<= x_11 (- x_4 (+ (+ x_2 (* (* (+ x_1 2) 1001) (/ 1 999))) (/ 1 2))))) (<= ?v_0 x_6)) (<= ?v_0 x_7)) (<= ?v_0 x_8)) (<= ?v_0 x_9)) (<= ?v_0 x_10)) (<= x_6 ?v_1)) (<= x_7 ?v_1)) (<= x_8 ?v_1)) (<= x_9 ?v_1)) (<= x_10 ?v_1)) (<= (- x_6 x_6) x_3)) (<= (- x_7 x_6) x_3)) (<= (- x_8 x_6) x_3)) (<= (- x_9 x_6) x_3)) (<= (- x_10 x_6) x_3)) (<= (- x_6 x_7) x_3)) (<= (- x_7 x_7) x_3)) (<= (- x_8 x_7) x_3)) (<= (- x_9 x_7) x_3)) (<= (- x_10 x_7) x_3)) (<= (- x_6 x_8) x_3)) (<= (- x_7 x_8) x_3)) (<= (- x_8 x_8) x_3)) (<= (- x_9 x_8) x_3)) (<= (- x_10 x_8) x_3)) (<= (- x_6 x_9) x_3)) (<= (- x_7 x_9) x_3)) (<= (- x_8 x_9) x_3)) (<= (- x_9 x_9) x_3)) (<= (- x_10 x_9) x_3)) (<= (- x_6 x_10) x_3)) (<= (- x_7 x_10) x_3)) (<= (- x_8 x_10) x_3)) (<= (- x_9 x_10) x_3)) (<= (- x_10 x_10) x_3)) (or (and ?v_3 (<= x_13 x_14)) ?v_34)) (or (and ?v_4 (<= x_16 x_14)) ?v_38)) (or (and ?v_5 (<= x_18 x_14)) ?v_42)) (or (and ?v_6 (<= x_20 x_14)) ?v_46)) (or (and ?v_7 (<= x_22 x_14)) ?v_50)) (or (or (or (or ?v_3 ?v_4) ?v_5) ?v_6) ?v_7)) (or ?v_18 (and (<= (* (* ?v_9 999) (/ 1 1000)) ?v_8) (<= ?v_8 (* (* ?v_9 1001) (/ 1 1000)))))) (or ?v_21 (and (<= (* (* ?v_11 999) (/ 1 1000)) ?v_10) (<= ?v_10 (* (* ?v_11 1001) (/ 1 1000)))))) (or ?v_24 (and (<= (* (* ?v_13 999) (/ 1 1000)) ?v_12) (<= ?v_12 (* (* ?v_13 1001) (/ 1 1000)))))) (or ?v_27 (and (<= (* (* ?v_15 999) (/ 1 1000)) ?v_14) (<= ?v_14 (* (* ?v_15 1001) (/ 1 1000)))))) (or ?v_30 (and (<= (* (* ?v_17 999) (/ 1 1000)) ?v_16) (<= ?v_16 (* (* ?v_17 1001) (/ 1 1000)))))) (or (or ?v_18 ?v_33) (and (and (not (< x_33 x_34)) (<= (* (* ?v_20 999) (/ 1 1000)) ?v_19)) (<= ?v_19 (* (* ?v_20 1001) (/ 1 1000)))))) (or (or ?v_21 ?v_37) (and (and (not (< x_33 x_35)) (<= (* (* ?v_23 999) (/ 1 1000)) ?v_22)) (<= ?v_22 (* (* ?v_23 1001) (/ 1 1000)))))) (or (or ?v_24 ?v_41) (and (and (not (< x_33 x_36)) (<= (* (* ?v_26 999) (/ 1 1000)) ?v_25)) (<= ?v_25 (* (* ?v_26 1001) (/ 1 1000)))))) (or (or ?v_27 ?v_45) (and (and (not (< x_33 x_37)) (<= (* (* ?v_29 999) (/ 1 1000)) ?v_28)) (<= ?v_28 (* (* ?v_29 1001) (/ 1 1000)))))) (or (or ?v_30 ?v_49) (and (and (not (< x_33 x_38)) (<= (* (* ?v_32 999) (/ 1 1000)) ?v_31)) (<= ?v_31 (* (* ?v_32 1001) (/ 1 1000)))))) (or ?v_53 (and (<= x_39 (+ (+ (* (* (+ (+ (+ x_6 (* ?v_35 (/ 1 999))) x_10) (* ?v_36 (/ 1 999))) 1) (/ 1 2)) x_2) (/ 3001 1998))) (not (< x_39 (- (- (* (* (+ (+ (+ x_6 (* ?v_35 (/ 1 1001))) x_10) (* ?v_36 (/ 1 1001))) 1) (/ 1 2)) x_2) (/ 1 2))))))) (or ?v_56 (and (<= x_40 (+ (+ (* (* (+ (+ (+ x_6 (* ?v_39 (/ 1 999))) x_10) (* ?v_40 (/ 1 999))) 1) (/ 1 2)) x_2) (/ 3001 1998))) (not (< x_40 (- (- (* (* (+ (+ (+ x_6 (* ?v_39 (/ 1 1001))) x_10) (* ?v_40 (/ 1 1001))) 1) (/ 1 2)) x_2) (/ 1 2))))))) (or ?v_59 (and (<= x_41 (+ (+ (* (* (+ (+ (+ x_6 (* ?v_43 (/ 1 999))) x_10) (* ?v_44 (/ 1 999))) 1) (/ 1 2)) x_2) (/ 3001 1998))) (not (< x_41 (- (- (* (* (+ (+ (+ x_6 (* ?v_43 (/ 1 1001))) x_10) (* ?v_44 (/ 1 1001))) 1) (/ 1 2)) x_2) (/ 1 2))))))) (or ?v_62 (and (<= x_42 (+ (+ (* (* (+ (+ (+ x_6 (* ?v_47 (/ 1 999))) x_10) (* ?v_48 (/ 1 999))) 1) (/ 1 2)) x_2) (/ 3001 1998))) (not (< x_42 (- (- (* (* (+ (+ (+ x_6 (* ?v_47 (/ 1 1001))) x_10) (* ?v_48 (/ 1 1001))) 1) (/ 1 2)) x_2) (/ 1 2))))))) (or ?v_65 (and (<= x_43 (+ (+ (* (* (+ (+ (+ x_6 (* ?v_51 (/ 1 999))) x_10) (* ?v_52 (/ 1 999))) 1) (/ 1 2)) x_2) (/ 3001 1998))) (not (< x_43 (- (- (* (* (+ (+ (+ x_6 (* ?v_51 (/ 1 1001))) x_10) (* ?v_52 (/ 1 1001))) 1) (/ 1 2)) x_2) (/ 1 2))))))) (or ?v_53 (and (<= (* (* ?v_55 999) (/ 1 1000)) ?v_54) (<= ?v_54 (* (* ?v_55 1001) (/ 1 1000)))))) (or ?v_56 (and (<= (* (* ?v_58 999) (/ 1 1000)) ?v_57) (<= ?v_57 (* (* ?v_58 1001) (/ 1 1000)))))) (or ?v_59 (and (<= (* (* ?v_61 999) (/ 1 1000)) ?v_60) (<= ?v_60 (* (* ?v_61 1001) (/ 1 1000)))))) (or ?v_62 (and (<= (* (* ?v_64 999) (/ 1 1000)) ?v_63) (<= ?v_63 (* (* ?v_64 1001) (/ 1 1000)))))) (or ?v_65 (and (<= (* (* ?v_67 999) (/ 1 1000)) ?v_66) (<= ?v_66 (* (* ?v_67 1001) (/ 1 1000)))))) (or ?v_68 (= x_44 ?v_139))) (or ?v_69 (= x_45 ?v_179))) (or ?v_70 (= x_46 ?v_188))) (or ?v_71 (= x_47 ?v_195))) (or ?v_72 (= x_48 ?v_202))) (or ?v_68 (and (<= ?v_74 ?v_73) (<= ?v_73 ?v_76)))) (or ?v_69 (and (<= ?v_74 ?v_75) (<= ?v_75 ?v_76)))) (or ?v_70 (and (<= ?v_74 ?v_77) (<= ?v_77 ?v_76)))) (or ?v_71 (and (<= ?v_74 ?v_78) (<= ?v_78 ?v_76)))) (or ?v_72 (and (<= ?v_74 ?v_79) (<= ?v_79 ?v_76)))) (<= x_85 x_86)) (<= x_85 x_87)) (<= x_85 x_88)) (<= x_85 x_89)) (<= x_85 x_90)) (<= x_86 ?v_80)) (<= x_87 ?v_80)) (<= x_88 ?v_80)) (<= x_89 ?v_80)) (<= x_90 ?v_80)) ?v_205) ?v_206) ?v_207) ?v_208) ?v_209) ?v_210) ?v_211) ?v_212) ?v_213) ?v_214) ?v_215) ?v_216) ?v_217) ?v_218) ?v_219) ?v_220) ?v_221) ?v_222) ?v_223) ?v_224) ?v_225) ?v_226) ?v_227) ?v_228) ?v_229) ?v_230) ?v_231) ?v_232) ?v_233) ?v_234) ?v_235) ?v_236) ?v_237) ?v_238) ?v_239) ?v_240) ?v_241) ?v_242) ?v_243) ?v_244) ?v_245) ?v_246) ?v_247) ?v_248) ?v_249) ?v_250) ?v_251) ?v_252) ?v_253) ?v_254) (<= x_121 x_85)) (<= x_121 x_122)) (<= x_121 x_123)) (<= x_121 x_124)) (<= x_121 x_125)) (<= x_121 x_126)) (<= x_122 ?v_91)) (<= x_123 ?v_91)) (<= x_124 ?v_91)) (<= x_125 ?v_91)) (<= x_126 ?v_91)) (<= x_127 x_85)) (<= x_128 x_85)) (<= x_129 x_85)) (<= x_130 x_85)) (<= x_131 x_85)) (<= (* (* ?v_93 999) (/ 1 1000)) ?v_92)) (<= (* (* ?v_95 999) (/ 1 1000)) ?v_94)) (<= (* (* ?v_97 999) (/ 1 1000)) ?v_96)) (<= (* (* ?v_99 999) (/ 1 1000)) ?v_98)) (<= (* (* ?v_101 999) (/ 1 1000)) ?v_100)) (<= ?v_92 (* (* ?v_93 1001) (/ 1 1000)))) (<= ?v_94 (* (* ?v_95 1001) (/ 1 1000)))) (<= ?v_96 (* (* ?v_97 1001) (/ 1 1000)))) (<= ?v_98 (* (* ?v_99 1001) (/ 1 1000)))) (<= ?v_100 (* (* ?v_101 1001) (/ 1 1000)))) (or (or (not (<= x_92 x_137)) (not (< x_137 ?v_102))) (= x_92 x_137))) (or (or (not (<= x_93 x_138)) (not (< x_138 ?v_103))) (= x_93 x_138))) (or (or (not (<= x_94 x_139)) (not (< x_139 ?v_104))) (= x_94 x_139))) (or (or (not (<= x_95 x_140)) (not (< x_140 ?v_105))) (= x_95 x_140))) (or (or (not (<= x_91 x_141)) (not (< x_141 ?v_106))) (= x_91 x_141))) (or (or (not (<= x_92 x_142)) (not (< x_142 ?v_102))) (= x_92 x_142))) (or (or (not (<= x_93 x_143)) (not (< x_143 ?v_103))) (= x_93 x_143))) (or (or (not (<= x_94 x_144)) (not (< x_144 ?v_104))) (= x_94 x_144))) (or (or (not (<= x_95 x_145)) (not (< x_145 ?v_105))) (= x_95 x_145))) (or (or (not (<= x_91 x_146)) (not (< x_146 ?v_106))) (= x_91 x_146))) (<= x_33 x_23)) (<= x_33 x_25)) (<= x_33 x_27)) (<= x_33 x_29)) (<= x_33 x_31)) (<= x_23 ?v_107)) (<= x_25 ?v_107)) (<= x_27 ?v_107)) (<= x_29 ?v_107)) (<= x_31 ?v_107)) (<= ?v_108 x_54)) (<= ?v_108 x_55)) (<= ?v_108 x_56)) (<= ?v_108 x_57)) (<= ?v_108 x_58)) (<= ?v_109 x_59)) (<= ?v_109 x_60)) (<= ?v_109 x_61)) (<= ?v_109 x_62)) (<= ?v_109 x_63)) (<= ?v_110 x_64)) (<= ?v_110 x_65)) (<= ?v_110 x_66)) (<= ?v_110 x_67)) (<= ?v_110 x_68)) (<= ?v_111 x_69)) (<= ?v_111 x_70)) (<= ?v_111 x_71)) (<= ?v_111 x_72)) (<= ?v_111 x_73)) (<= ?v_112 x_74)) (<= ?v_112 x_75)) (<= ?v_112 x_76)) (<= ?v_112 x_77)) (<= ?v_112 x_78)) (<= x_54 ?v_113)) (<= x_55 ?v_113)) (<= x_56 ?v_113)) (<= x_57 ?v_113)) (<= x_58 ?v_113)) (<= x_59 ?v_114)) (<= x_60 ?v_114)) (<= x_61 ?v_114)) (<= x_62 ?v_114)) (<= x_63 ?v_114)) (<= x_64 ?v_115)) (<= x_65 ?v_115)) (<= x_66 ?v_115)) (<= x_67 ?v_115)) (<= x_68 ?v_115)) (<= x_69 ?v_116)) (<= x_70 ?v_116)) (<= x_71 ?v_116)) (<= x_72 ?v_116)) (<= x_73 ?v_116)) (<= x_74 ?v_117)) (<= x_75 ?v_117)) (<= x_76 ?v_117)) (<= x_77 ?v_117)) (<= x_78 ?v_117)) (<= x_79 x_33)) (<= x_79 x_24)) (<= x_79 x_26)) (<= x_79 x_28)) (<= x_79 x_30)) (<= x_79 x_32)) (<= x_24 ?v_118)) (<= x_26 ?v_118)) (<= x_28 ?v_118)) (<= x_30 ?v_118)) (<= x_32 ?v_118)) (<= x_49 x_33)) (<= x_50 x_33)) (<= x_51 x_33)) (<= x_52 x_33)) (<= x_53 x_33)) (<= (* (* ?v_120 999) (/ 1 1000)) ?v_119)) (<= (* (* ?v_122 999) (/ 1 1000)) ?v_121)) (<= (* (* ?v_124 999) (/ 1 1000)) ?v_123)) (<= (* (* ?v_126 999) (/ 1 1000)) ?v_125)) (<= (* (* ?v_128 999) (/ 1 1000)) ?v_127)) (<= ?v_119 (* (* ?v_120 1001) (/ 1 1000)))) (<= ?v_121 (* (* ?v_122 1001) (/ 1 1000)))) (<= ?v_123 (* (* ?v_124 1001) (/ 1 1000)))) (<= ?v_125 (* (* ?v_126 1001) (/ 1 1000)))) (<= ?v_127 (* (* ?v_128 1001) (/ 1 1000)))) (or (or (not (<= x_13 x_12)) (not (< x_12 ?v_129))) ?v_134)) (or (or (not (<= x_16 x_15)) (not (< x_15 ?v_130))) ?v_175)) (or (or (not (<= x_18 x_17)) (not (< x_17 ?v_131))) ?v_184)) (or (or (not (<= x_20 x_19)) (not (< x_19 ?v_132))) ?v_191)) (or (or (not (<= x_22 x_21)) (not (< x_21 ?v_133))) ?v_198)) (or (or (not (<= x_13 x_80)) (not (< x_80 ?v_129))) ?v_138)) (or (or (not (<= x_16 x_81)) (not (< x_81 ?v_130))) ?v_178)) (or (or (not (<= x_18 x_82)) (not (< x_82 ?v_131))) ?v_187)) (or (or (not (<= x_20 x_83)) (not (< x_83 ?v_132))) ?v_194)) (or (or (not (<= x_22 x_84)) (not (< x_84 ?v_133))) ?v_201)) (= x_142 (+ x_137 x_1))) (= x_143 (+ x_138 x_1))) (= x_144 (+ x_139 x_1))) (= x_145 (+ x_140 x_1))) (= x_146 (+ x_141 x_1))) (= x_80 (+ x_12 x_1))) (= x_81 (+ x_15 x_1))) (= x_82 (+ x_17 x_1))) (= x_83 (+ x_19 x_1))) (= x_84 (+ x_21 x_1))) (= x_14 (+ x_0 x_1))) (or (and (and (and (and (and (and (and (and (and (and (and (and (and (and (and (and (and (and (and (and (and (and (and (and (and (and (and (and (and (and (and (and (and (and (and (and (and (and (and (and (and (and (and (and (and (and (and (and (and (and (and (and (and (and (and (and (and (and (and (and (and (and (and (and (and (and (and (and (and (and (and (< x_33 x_23) (< x_33 x_25)) (< x_33 x_27)) (< x_33 x_29)) (< x_33 x_31)) (< x_33 x_85)) (<= x_85 x_23)) (<= x_85 x_25)) (<= x_85 x_27)) (<= x_85 x_29)) (<= x_85 x_31)) (or (or (or (or (= x_85 x_23) (= x_85 x_25)) (= x_85 x_27)) (= x_85 x_29)) (= x_85 x_31))) ?v_182) ?v_146) ?v_153) ?v_160) ?v_167) ?v_140) ?v_147) ?v_154) ?v_161) ?v_168) ?v_137) ?v_148) ?v_155) ?v_162) ?v_169) ?v_183) ?v_149) ?v_156) ?v_163) ?v_170) ?v_143) ?v_150) ?v_157) ?v_164) ?v_171) ?v_142) ?v_151) ?v_158) ?v_165) ?v_172) ?v_144) ?v_152) ?v_159) ?v_166) ?v_173) (= x_96 x_54)) (= x_101 x_59)) (= x_106 x_64)) (= x_111 x_69)) (= x_116 x_74)) (= x_97 x_55)) (= x_102 x_60)) (= x_107 x_65)) (= x_112 x_70)) (= x_117 x_75)) (= x_98 x_56)) (= x_103 x_61)) (= x_108 x_66)) (= x_113 x_71)) (= x_118 x_76)) (= x_99 x_57)) (= x_104 x_62)) (= x_109 x_67)) (= x_114 x_72)) (= x_119 x_77)) (= x_100 x_58)) (= x_105 x_63)) (= x_110 x_68)) (= x_115 x_73)) (= x_120 x_78)) (and (and (and (and (and (and (and (and (and (and (and (and (and (and (and (and (and (and (and (and (and (and (and (and (and (and (and (and (and (and (and (and (and (and (and (and (and (and (and (and (and (and (and (and (and (and (and (and (and (and (and (or (or (or (or (and (and (and (and (and (and (and (and (and (and (and (and (and (and (and (and (and (and (and (and (and (and (and (and (and (and (and (and (and (and (and (and (= x_33 x_23) (<= ?v_174 x_86)) (<= x_86 ?v_107)) (or (or (and (and (and (and ?v_134 (<= (- ?v_136 1) ?v_135)) (<= ?v_135 (+ ?v_136 1))) ?v_141) ?v_137) (and (and (and ?v_138 (= x_92 (+ ?v_139 1))) (= x_137 (+ (+ x_12 x_4) x_1))) ?v_140)) (and (and (and ?v_145 ?v_141) ?v_140) ?v_137))) (or (or (and (and (and ?v_134 (= x_149 x_33)) ?v_142) ?v_143) (and (and (and ?v_138 (= x_127 x_33)) (= x_132 (- x_92 1))) ?v_144)) (and (and (and ?v_145 ?v_144) ?v_142) ?v_143))) ?v_146) ?v_147) ?v_148) ?v_149) ?v_150) ?v_151) ?v_152) ?v_153) ?v_154) ?v_155) ?v_156) ?v_157) ?v_158) ?v_159) ?v_160) ?v_161) ?v_162) ?v_163) ?v_164) ?v_165) ?v_166) ?v_167) ?v_168) ?v_169) ?v_170) ?v_171) ?v_172) ?v_173) (and (and (and (and (and (and (and (and (and (and (and (and (and (and (and (and (and (and (and (and (and (and (and (and (and (and (and (and (and (and (and (and (= x_33 x_25) (<= ?v_174 x_87)) (<= x_87 ?v_107)) (or (or (and (and (and (and ?v_175 (<= (- ?v_177 1) ?v_176)) (<= ?v_176 (+ ?v_177 1))) ?v_180) ?v_148) (and (and (and ?v_178 (= x_93 (+ ?v_179 1))) (= x_138 (+ (+ x_15 x_4) x_1))) ?v_147)) (and (and (and ?v_181 ?v_180) ?v_147) ?v_148))) (or (or (and (and (and ?v_175 (= x_150 x_33)) ?v_151) ?v_150) (and (and (and ?v_178 (= x_128 x_33)) (= x_133 (- x_93 1))) ?v_152)) (and (and (and ?v_181 ?v_152) ?v_151) ?v_150))) ?v_182) ?v_140) ?v_137) ?v_183) ?v_143) ?v_142) ?v_144) ?v_153) ?v_154) ?v_155) ?v_156) ?v_157) ?v_158) ?v_159) ?v_160) ?v_161) ?v_162) ?v_163) ?v_164) ?v_165) ?v_166) ?v_167) ?v_168) ?v_169) ?v_170) ?v_171) ?v_172) ?v_173)) (and (and (and (and (and (and (and (and (and (and (and (and (and (and (and (and (and (and (and (and (and (and (and (and (and (and (and (and (and (and (and (and (= x_33 x_27) (<= ?v_174 x_88)) (<= x_88 ?v_107)) (or (or (and (and (and (and ?v_184 (<= (- ?v_186 1) ?v_185)) (<= ?v_185 (+ ?v_186 1))) ?v_189) ?v_155) (and (and (and ?v_187 (= x_94 (+ ?v_188 1))) (= x_139 (+ (+ x_17 x_4) x_1))) ?v_154)) (and (and (and ?v_190 ?v_189) ?v_154) ?v_155))) (or (or (and (and (and ?v_184 (= x_151 x_33)) ?v_158) ?v_157) (and (and (and ?v_187 (= x_129 x_33)) (= x_134 (- x_94 1))) ?v_159)) (and (and (and ?v_190 ?v_159) ?v_158) ?v_157))) ?v_182) ?v_140) ?v_137) ?v_183) ?v_143) ?v_142) ?v_144) ?v_146) ?v_147) ?v_148) ?v_149) ?v_150) ?v_151) ?v_152) ?v_160) ?v_161) ?v_162) ?v_163) ?v_164) ?v_165) ?v_166) ?v_167) ?v_168) ?v_169) ?v_170) ?v_171) ?v_172) ?v_173)) (and (and (and (and (and (and (and (and (and (and (and (and (and (and (and (and (and (and (and (and (and (and (and (and (and (and (and (and (and (and (and (and (= x_33 x_29) (<= ?v_174 x_89)) (<= x_89 ?v_107)) (or (or (and (and (and (and ?v_191 (<= (- ?v_193 1) ?v_192)) (<= ?v_192 (+ ?v_193 1))) ?v_196) ?v_162) (and (and (and ?v_194 (= x_95 (+ ?v_195 1))) (= x_140 (+ (+ x_19 x_4) x_1))) ?v_161)) (and (and (and ?v_197 ?v_196) ?v_161) ?v_162))) (or (or (and (and (and ?v_191 (= x_152 x_33)) ?v_165) ?v_164) (and (and (and ?v_194 (= x_130 x_33)) (= x_135 (- x_95 1))) ?v_166)) (and (and (and ?v_197 ?v_166) ?v_165) ?v_164))) ?v_182) ?v_140) ?v_137) ?v_183) ?v_143) ?v_142) ?v_144) ?v_146) ?v_147) ?v_148) ?v_149) ?v_150) ?v_151) ?v_152) ?v_153) ?v_154) ?v_155) ?v_156) ?v_157) ?v_158) ?v_159) ?v_167) ?v_168) ?v_169) ?v_170) ?v_171) ?v_172) ?v_173)) (and (and (and (and (and (and (and (and (and (and (and (and (and (and (and (and (and (and (and (and (and (and (and (and (and (and (and (and (and (and (and (and (= x_33 x_31) (<= ?v_174 x_90)) (<= x_90 ?v_107)) (or (or (and (and (and (and ?v_198 (<= (- ?v_200 1) ?v_199)) (<= ?v_199 (+ ?v_200 1))) ?v_203) ?v_169) (and (and (and ?v_201 (= x_91 (+ ?v_202 1))) (= x_141 (+ (+ x_21 x_4) x_1))) ?v_168)) (and (and (and ?v_204 ?v_203) ?v_168) ?v_169))) (or (or (and (and (and ?v_198 (= x_148 x_33)) ?v_172) ?v_171) (and (and (and ?v_201 (= x_131 x_33)) (= x_136 (- x_91 1))) ?v_173)) (and (and (and ?v_204 ?v_173) ?v_172) ?v_171))) ?v_182) ?v_140) ?v_137) ?v_183) ?v_143) ?v_142) ?v_144) ?v_146) ?v_147) ?v_148) ?v_149) ?v_150) ?v_151) ?v_152) ?v_153) ?v_154) ?v_155) ?v_156) ?v_157) ?v_158) ?v_159) ?v_160) ?v_161) ?v_162) ?v_163) ?v_164) ?v_165) ?v_166)) ?v_205) ?v_206) ?v_207) ?v_208) ?v_209) ?v_210) ?v_211) ?v_212) ?v_213) ?v_214) ?v_215) ?v_216) ?v_217) ?v_218) ?v_219) ?v_220) ?v_221) ?v_222) ?v_223) ?v_224) ?v_225) ?v_226) ?v_227) ?v_228) ?v_229) ?v_230) ?v_231) ?v_232) ?v_233) ?v_234) ?v_235) ?v_236) ?v_237) ?v_238) ?v_239) ?v_240) ?v_241) ?v_242) ?v_243) ?v_244) ?v_245) ?v_246) ?v_247) ?v_248) ?v_249) ?v_250) ?v_251) ?v_252) ?v_253) ?v_254) (= x_85 x_33)))) (or (and (and (and (and (and (and (and (and (and (and (and (and (and (and (and (and (not ?v_255) (not ?v_256)) (not ?v_257)) (not ?v_258)) (not ?v_259)) (= x_121 x_85)) (= x_158 x_92)) (= x_159 x_93)) (= x_160 x_94)) (= x_161 x_95)) (= x_162 x_91)) (= x_122 x_86)) (= x_123 x_87)) (= x_124 x_88)) (= x_125 x_89)) (= x_126 x_90)) (= x_147 ?v_2)) (and (and (and (and (and (and (and (and (and (and (and (and (or (or (or (or ?v_255 ?v_256) ?v_257) ?v_258) ?v_259) (= x_147 x_0)) (= x_121 x_79)) (= x_122 x_24)) (= x_123 x_26)) (= x_124 x_28)) (= x_125 x_30)) (= x_126 x_32)) (= x_158 x_6)) (= x_159 x_7)) (= x_160 x_8)) (= x_161 x_9)) (= x_162 x_10)))) (or (or (or (or (or (or (or (or (or (or (or (or (or (or (or (or (or (or (or (or (or (or (or (or (or (or (or (or (or (or (or (or (or (or (or (or (or (or (or (or (or (or (or (or (or (or (or (or (or (or (or (or (or (or (or (or (or (or (or (or (or (or (or (or (or (or (or (or (or (or (not (<= ?v_260 x_158)) (not (<= ?v_260 x_159))) (not (<= ?v_260 x_160))) (not (<= ?v_260 x_161))) (not (<= ?v_260 x_162))) (not (<= x_158 ?v_261))) (not (<= x_159 ?v_261))) (not (<= x_160 ?v_261))) (not (<= x_161 ?v_261))) (not (<= x_162 ?v_261))) (not (<= (- x_158 x_158) x_3))) (not (<= (- x_159 x_158) x_3))) (not (<= (- x_160 x_158) x_3))) (not (<= (- x_161 x_158) x_3))) (not (<= (- x_162 x_158) x_3))) (not (<= (- x_158 x_159) x_3))) (not (<= (- x_159 x_159) x_3))) (not (<= (- x_160 x_159) x_3))) (not (<= (- x_161 x_159) x_3))) (not (<= (- x_162 x_159) x_3))) (not (<= (- x_158 x_160) x_3))) (not (<= (- x_159 x_160) x_3))) (not (<= (- x_160 x_160) x_3))) (not (<= (- x_161 x_160) x_3))) (not (<= (- x_162 x_160) x_3))) (not (<= (- x_158 x_161) x_3))) (not (<= (- x_159 x_161) x_3))) (not (<= (- x_160 x_161) x_3))) (not (<= (- x_161 x_161) x_3))) (not (<= (- x_162 x_161) x_3))) (not (<= (- x_158 x_162) x_3))) (not (<= (- x_159 x_162) x_3))) (not (<= (- x_160 x_162) x_3))) (not (<= (- x_161 x_162) x_3))) (not (<= (- x_162 x_162) x_3))) (and (or ?v_264 (not (<= x_92 ?v_262))) (not ?v_295))) (and (or ?v_265 (not (<= x_93 ?v_262))) (not ?v_299))) (and (or ?v_266 (not (<= x_94 ?v_262))) (not ?v_303))) (and (or ?v_267 (not (<= x_95 ?v_262))) (not ?v_307))) (and (or ?v_268 (not (<= x_91 ?v_262))) (not ?v_311))) (and (and (and (and ?v_264 ?v_265) ?v_266) ?v_267) ?v_268)) (and ?v_269 (or (not (<= (* (* ?v_271 999) (/ 1 1000)) ?v_270)) (not (<= ?v_270 (* (* ?v_271 1001) (/ 1 1000))))))) (and ?v_272 (or (not (<= (* (* ?v_274 999) (/ 1 1000)) ?v_273)) (not (<= ?v_273 (* (* ?v_274 1001) (/ 1 1000))))))) (and ?v_275 (or (not (<= (* (* ?v_277 999) (/ 1 1000)) ?v_276)) (not (<= ?v_276 (* (* ?v_277 1001) (/ 1 1000))))))) (and ?v_278 (or (not (<= (* (* ?v_280 999) (/ 1 1000)) ?v_279)) (not (<= ?v_279 (* (* ?v_280 1001) (/ 1 1000))))))) (and ?v_281 (or (not (<= (* (* ?v_283 999) (/ 1 1000)) ?v_282)) (not (<= ?v_282 (* (* ?v_283 1001) (/ 1 1000))))))) (and (and ?v_269 ?v_294) (or (or (< x_85 x_149) (not (<= (* (* ?v_285 999) (/ 1 1000)) ?v_284))) (not (<= ?v_284 (* (* ?v_285 1001) (/ 1 1000))))))) (and (and ?v_272 ?v_298) (or (or (< x_85 x_150) (not (<= (* (* ?v_287 999) (/ 1 1000)) ?v_286))) (not (<= ?v_286 (* (* ?v_287 1001) (/ 1 1000))))))) (and (and ?v_275 ?v_302) (or (or (< x_85 x_151) (not (<= (* (* ?v_289 999) (/ 1 1000)) ?v_288))) (not (<= ?v_288 (* (* ?v_289 1001) (/ 1 1000))))))) (and (and ?v_278 ?v_306) (or (or (< x_85 x_152) (not (<= (* (* ?v_291 999) (/ 1 1000)) ?v_290))) (not (<= ?v_290 (* (* ?v_291 1001) (/ 1 1000))))))) (and (and ?v_281 ?v_310) (or (or (< x_85 x_148) (not (<= (* (* ?v_293 999) (/ 1 1000)) ?v_292))) (not (<= ?v_292 (* (* ?v_293 1001) (/ 1 1000))))))) (and ?v_314 (or (not (<= x_153 (+ (+ (* (* (+ (+ (+ x_158 (* ?v_296 (/ 1 999))) x_162) (* ?v_297 (/ 1 999))) 1) (/ 1 2)) x_2) (/ 3001 1998)))) (< x_153 (- (- (* (* (+ (+ (+ x_158 (* ?v_296 (/ 1 1001))) x_162) (* ?v_297 (/ 1 1001))) 1) (/ 1 2)) x_2) (/ 1 2)))))) (and ?v_317 (or (not (<= x_154 (+ (+ (* (* (+ (+ (+ x_158 (* ?v_300 (/ 1 999))) x_162) (* ?v_301 (/ 1 999))) 1) (/ 1 2)) x_2) (/ 3001 1998)))) (< x_154 (- (- (* (* (+ (+ (+ x_158 (* ?v_300 (/ 1 1001))) x_162) (* ?v_301 (/ 1 1001))) 1) (/ 1 2)) x_2) (/ 1 2)))))) (and ?v_320 (or (not (<= x_155 (+ (+ (* (* (+ (+ (+ x_158 (* ?v_304 (/ 1 999))) x_162) (* ?v_305 (/ 1 999))) 1) (/ 1 2)) x_2) (/ 3001 1998)))) (< x_155 (- (- (* (* (+ (+ (+ x_158 (* ?v_304 (/ 1 1001))) x_162) (* ?v_305 (/ 1 1001))) 1) (/ 1 2)) x_2) (/ 1 2)))))) (and ?v_323 (or (not (<= x_156 (+ (+ (* (* (+ (+ (+ x_158 (* ?v_308 (/ 1 999))) x_162) (* ?v_309 (/ 1 999))) 1) (/ 1 2)) x_2) (/ 3001 1998)))) (< x_156 (- (- (* (* (+ (+ (+ x_158 (* ?v_308 (/ 1 1001))) x_162) (* ?v_309 (/ 1 1001))) 1) (/ 1 2)) x_2) (/ 1 2)))))) (and ?v_326 (or (not (<= x_157 (+ (+ (* (* (+ (+ (+ x_158 (* ?v_312 (/ 1 999))) x_162) (* ?v_313 (/ 1 999))) 1) (/ 1 2)) x_2) (/ 3001 1998)))) (< x_157 (- (- (* (* (+ (+ (+ x_158 (* ?v_312 (/ 1 1001))) x_162) (* ?v_313 (/ 1 1001))) 1) (/ 1 2)) x_2) (/ 1 2)))))) (and ?v_314 (or (not (<= (* (* ?v_316 999) (/ 1 1000)) ?v_315)) (not (<= ?v_315 (* (* ?v_316 1001) (/ 1 1000))))))) (and ?v_317 (or (not (<= (* (* ?v_319 999) (/ 1 1000)) ?v_318)) (not (<= ?v_318 (* (* ?v_319 1001) (/ 1 1000))))))) (and ?v_320 (or (not (<= (* (* ?v_322 999) (/ 1 1000)) ?v_321)) (not (<= ?v_321 (* (* ?v_322 1001) (/ 1 1000))))))) (and ?v_323 (or (not (<= (* (* ?v_325 999) (/ 1 1000)) ?v_324)) (not (<= ?v_324 (* (* ?v_325 1001) (/ 1 1000))))))) (and ?v_326 (or (not (<= (* (* ?v_328 999) (/ 1 1000)) ?v_327)) (not (<= ?v_327 (* (* ?v_328 1001) (/ 1 1000))))))) (and ?v_295 (not (= x_132 (+ x_153 x_1))))) (and ?v_299 (not (= x_133 (+ x_154 x_1))))) (and ?v_303 (not (= x_134 (+ x_155 x_1))))) (and ?v_307 (not (= x_135 (+ x_156 x_1))))) (and ?v_311 (not (= x_136 (+ x_157 x_1))))) (and ?v_295 (or (not (<= ?v_74 ?v_329)) (not (<= ?v_329 ?v_76))))) (and ?v_299 (or (not (<= ?v_74 ?v_330)) (not (<= ?v_330 ?v_76))))) (and ?v_303 (or (not (<= ?v_74 ?v_331)) (not (<= ?v_331 ?v_76))))) (and ?v_307 (or (not (<= ?v_74 ?v_332)) (not (<= ?v_332 ?v_76))))) (and ?v_311 (or (not (<= ?v_74 ?v_333)) (not (<= ?v_333 ?v_76)))))))))))))))))))))))))))))))))))))))))
(check-sat)
(exit)
